
--- Job Ex2-1-labor.gms Start 09/14/20 11:41:10 24.2.3 r46072 WEX-WEI x86_64/MS Windows
GAMS 24.2.3   Copyright (C) 1987-2014 GAMS Development. All rights reserved
Licensee: Utah Water Research Laboratory (5 user)        G140130:1517AV-GEN
          Utah State University                                      DC7087
          License for teaching and research at degree granting institutions
--- Starting compilation
--- Ex2-1-labor.gms(80) 3 Mb
--- Starting execution: elapsed 0:00:00.001
--- Generating LP model PLANTING
--- Ex2-1-labor.gms(78) 4 Mb
---   4 rows  3 columns  9 non-zeroes
--- Executing CPLEX: elapsed 0:00:00.011

IBM ILOG CPLEX   24.2.3 r46072 Released May 22, 2014 WEI x86_64/MS Windows    
Cplex 12.6.0.0

Reading data...
Starting Cplex...
Space for names approximately 0.00 Mb
Use option 'names no' to turn use of names off
Tried aggregator 1 time.
LP Presolve eliminated 1 rows and 1 columns.
Reduced LP has 3 rows, 2 columns, and 6 nonzeros.
Presolve time = 0.02 sec. (0.00 ticks)

Iteration      Dual Objective            In Variable           Out Variable
     1 sI            0.000000            X(Tomatoes)RES_CONSTRAIN(Lab slack
     2           22333.333333            X(Eggplant)RES_CONSTRAIN(Wat slack
     3           20000.000000RES_CONSTRAIN(Lab slackRES_CONSTRAIN(Lan slack
LP status(1): optimal
Cplex Time: 0.02sec (det. 0.01 ticks)

Optimal solution found.
Objective :       20000.000000

--- Restarting execution
--- Ex2-1-labor.gms(78) 2 Mb
--- Reading solution for model PLANTING
*** Status: Normal completion
--- Job Ex2-1-labor.gms Stop 09/14/20 11:41:10 elapsed 0:00:00.079
